p cnf 539 1341
1 -2 0
1 -3 0
1 -4 0
1 -5 0
1 -6 0
1 -7 0
1 -8 0
1 -9 0
1 -10 0
1 -11 0
1 -12 0
13 0
14 -1 0
1 -14 0
-3 15 0
-4 15 0
-5 15 0
-6 15 0
-7 15 0
-8 15 0
-9 15 0
-10 15 0
-11 15 0
-12 15 0
16 0
17 -15 0
15 -17 0
-4 18 0
-5 18 0
-6 18 0
-7 18 0
-8 18 0
-9 18 0
-10 18 0
-11 18 0
-12 18 0
19 0
20 -18 0
18 -20 0
-5 21 0
-6 21 0
-7 21 0
-8 21 0
-9 21 0
-10 21 0
-11 21 0
-12 21 0
22 0
23 -21 0
21 -23 0
-6 24 0
-7 24 0
-8 24 0
-9 24 0
-10 24 0
-11 24 0
-12 24 0
25 0
26 -24 0
24 -26 0
-7 27 0
-8 27 0
-9 27 0
-10 27 0
-11 27 0
-12 27 0
7 8 9 10 11 12 -27 0
28 -27 0
27 -28 0
29 -27 0
27 -29 0
30 -27 0
27 -30 0
31 -27 0
27 -31 0
32 -27 0
27 -32 0
-12 33 0
-7 33 0
-8 33 0
-9 33 0
-10 33 0
-11 33 0
12 7 8 9 10 11 -33 0
34 -33 0
33 -34 0
35 -36 0
35 -37 0
35 -38 0
35 -39 0
35 -40 0
35 -41 0
35 -42 0
35 -43 0
44 0
45 -35 0
35 -45 0
-37 46 0
-38 46 0
-39 46 0
-40 46 0
-41 46 0
-42 46 0
-43 46 0
47 0
48 -46 0
46 -48 0
-38 49 0
-39 49 0
-40 49 0
-41 49 0
-42 49 0
-43 49 0
38 39 40 41 42 43 -49 0
50 -49 0
49 -50 0
-39 51 0
-40 51 0
-41 51 0
-42 51 0
-43 51 0
39 40 41 42 43 -51 0
52 -51 0
51 -52 0
53 -51 0
51 -53 0
54 -51 0
51 -54 0
55 -51 0
51 -55 0
56 -51 0
51 -56 0
57 -58 0
57 -59 0
57 -60 0
57 -61 0
57 -62 0
57 -63 0
57 -64 0
57 -65 0
57 -66 0
57 -67 0
57 -68 0
69 0
70 -57 0
57 -70 0
-59 71 0
-60 71 0
-61 71 0
-62 71 0
-63 71 0
-64 71 0
-65 71 0
-66 71 0
-67 71 0
-68 71 0
72 0
73 -71 0
71 -73 0
-60 74 0
-61 74 0
-62 74 0
-63 74 0
-64 74 0
-65 74 0
-66 74 0
-67 74 0
-68 74 0
75 0
76 -74 0
74 -76 0
-61 77 0
-62 77 0
-63 77 0
-64 77 0
-65 77 0
-66 77 0
-67 77 0
-68 77 0
78 0
79 -77 0
77 -79 0
-62 80 0
-63 80 0
-64 80 0
-65 80 0
-66 80 0
-67 80 0
-68 80 0
81 0
82 -80 0
80 -82 0
-63 83 0
-64 83 0
-65 83 0
-66 83 0
-67 83 0
-68 83 0
84 0
85 -83 0
83 -85 0
86 -83 0
83 -86 0
87 -83 0
83 -87 0
88 -83 0
83 -88 0
89 -83 0
83 -89 0
90 -83 0
83 -90 0
-62 91 0
-63 91 0
-64 91 0
-65 91 0
-66 91 0
-67 91 0
-68 91 0
91 -92 0
91 -93 0
91 -94 0
91 -95 0
96 0
97 -91 0
91 -97 0
-62 98 0
-63 98 0
-64 98 0
-65 98 0
-66 98 0
-67 98 0
-68 98 0
-93 98 0
-94 98 0
-95 98 0
99 0
100 -98 0
98 -100 0
-62 101 0
-63 101 0
-64 101 0
-65 101 0
-66 101 0
-67 101 0
-68 101 0
-94 101 0
-95 101 0
102 0
103 -101 0
101 -103 0
-62 104 0
-63 104 0
-64 104 0
-65 104 0
-66 104 0
-67 104 0
-68 104 0
-95 104 0
105 0
106 -104 0
104 -106 0
-39 107 0
-40 107 0
-41 107 0
-42 107 0
-43 107 0
107 -108 0
107 -109 0
107 -110 0
107 -111 0
112 0
113 -107 0
107 -113 0
-39 114 0
-40 114 0
-41 114 0
-42 114 0
-43 114 0
-109 114 0
-110 114 0
-111 114 0
115 0
116 -114 0
114 -116 0
-39 117 0
-40 117 0
-41 117 0
-42 117 0
-43 117 0
-110 117 0
-111 117 0
118 0
119 -117 0
117 -119 0
-39 120 0
-40 120 0
-41 120 0
-42 120 0
-43 120 0
-111 120 0
121 0
122 -120 0
120 -122 0
123 -124 0
123 -125 0
123 -126 0
123 -127 0
124 125 126 127 -123 0
128 -123 0
123 -128 0
-125 129 0
-126 129 0
-127 129 0
125 126 127 -129 0
130 -129 0
129 -130 0
-126 131 0
-127 131 0
126 127 -131 0
132 -131 0
131 -132 0
133 -127 0
127 -133 0
-39 134 0
-40 134 0
-41 134 0
-42 134 0
-43 134 0
134 -135 0
134 -136 0
134 -137 0
134 -138 0
139 0
140 -134 0
134 -140 0
-39 141 0
-40 141 0
-41 141 0
-42 141 0
-43 141 0
-136 141 0
-137 141 0
-138 141 0
142 0
143 -141 0
141 -143 0
-39 144 0
-40 144 0
-41 144 0
-42 144 0
-43 144 0
-137 144 0
-138 144 0
145 0
146 -144 0
144 -146 0
-39 147 0
-40 147 0
-41 147 0
-42 147 0
-43 147 0
-138 147 0
148 0
149 -147 0
147 -149 0
150 -151 0
150 -152 0
150 -153 0
150 -154 0
150 -155 0
150 -156 0
150 -157 0
150 -158 0
150 -159 0
150 -160 0
161 0
162 -150 0
150 -162 0
-152 163 0
-153 163 0
-154 163 0
-155 163 0
-156 163 0
-157 163 0
-158 163 0
-159 163 0
-160 163 0
164 0
165 -163 0
163 -165 0
-153 166 0
-154 166 0
-155 166 0
-156 166 0
-157 166 0
-158 166 0
-159 166 0
-160 166 0
167 0
168 -166 0
166 -168 0
-154 169 0
-155 169 0
-156 169 0
-157 169 0
-158 169 0
-159 169 0
-160 169 0
170 0
171 -169 0
169 -171 0
-155 172 0
-156 172 0
-157 172 0
-158 172 0
-159 172 0
-160 172 0
173 0
174 -172 0
172 -174 0
-156 175 0
-157 175 0
-158 175 0
-159 175 0
-160 175 0
156 157 158 159 160 -175 0
176 -175 0
175 -176 0
-157 177 0
-158 177 0
-159 177 0
-160 177 0
157 158 159 160 -177 0
178 -177 0
177 -178 0
179 -177 0
177 -179 0
180 -177 0
177 -180 0
181 -177 0
177 -181 0
182 -183 0
182 -184 0
182 -185 0
182 -186 0
182 -187 0
182 -188 0
182 -189 0
182 -190 0
182 -191 0
182 -192 0
182 -193 0
194 0
195 -182 0
182 -195 0
-184 196 0
-185 196 0
-186 196 0
-187 196 0
-188 196 0
-189 196 0
-190 196 0
-191 196 0
-192 196 0
-193 196 0
197 0
198 -196 0
196 -198 0
-185 199 0
-186 199 0
-187 199 0
-188 199 0
-189 199 0
-190 199 0
-191 199 0
-192 199 0
-193 199 0
200 0
201 -199 0
199 -201 0
-186 202 0
-187 202 0
-188 202 0
-189 202 0
-190 202 0
-191 202 0
-192 202 0
-193 202 0
203 0
204 -202 0
202 -204 0
-187 205 0
-188 205 0
-189 205 0
-190 205 0
-191 205 0
-192 205 0
-193 205 0
206 0
207 -205 0
205 -207 0
-188 208 0
-189 208 0
-190 208 0
-191 208 0
-192 208 0
-193 208 0
209 0
210 -208 0
208 -210 0
211 -208 0
208 -211 0
212 -208 0
208 -212 0
213 -208 0
208 -213 0
214 -208 0
208 -214 0
215 -208 0
208 -215 0
-157 216 0
-158 216 0
-159 216 0
-160 216 0
216 -217 0
216 -218 0
216 -219 0
216 -220 0
221 0
222 -216 0
216 -222 0
-157 223 0
-158 223 0
-159 223 0
-160 223 0
-218 223 0
-219 223 0
-220 223 0
224 0
225 -223 0
223 -225 0
-157 226 0
-158 226 0
-159 226 0
-160 226 0
-219 226 0
-220 226 0
227 0
228 -226 0
226 -228 0
-157 229 0
-158 229 0
-159 229 0
-160 229 0
-220 229 0
157 158 159 160 220 -229 0
230 -229 0
229 -230 0
231 -232 0
231 -233 0
231 -234 0
231 -235 0
231 -236 0
231 -237 0
238 0
239 -231 0
231 -239 0
-233 240 0
-234 240 0
-235 240 0
-236 240 0
-237 240 0
233 234 235 236 237 -240 0
241 -240 0
240 -241 0
242 -240 0
240 -242 0
243 -240 0
240 -243 0
244 -240 0
240 -244 0
245 -240 0
240 -245 0
246 -247 0
246 -248 0
246 -249 0
246 -250 0
246 -251 0
246 -252 0
246 -253 0
254 0
255 -246 0
246 -255 0
-248 256 0
-249 256 0
-250 256 0
-251 256 0
-252 256 0
-253 256 0
257 0
258 -256 0
256 -258 0
259 -256 0
256 -259 0
260 -256 0
256 -260 0
261 -256 0
256 -261 0
262 -256 0
256 -262 0
263 -256 0
256 -263 0
264 -265 0
264 -266 0
264 -267 0
264 -268 0
264 -269 0
264 -270 0
264 -271 0
264 -272 0
264 -273 0
274 0
275 -264 0
264 -275 0
-266 276 0
-267 276 0
-268 276 0
-269 276 0
-270 276 0
-271 276 0
-272 276 0
-273 276 0
277 0
278 -276 0
276 -278 0
-267 279 0
-268 279 0
-269 279 0
-270 279 0
-271 279 0
-272 279 0
-273 279 0
280 0
281 -279 0
279 -281 0
-268 282 0
-269 282 0
-270 282 0
-271 282 0
-272 282 0
-273 282 0
283 0
284 -282 0
282 -284 0
-269 285 0
-270 285 0
-271 285 0
-272 285 0
-273 285 0
269 270 271 272 273 -285 0
286 -285 0
285 -286 0
-270 287 0
-271 287 0
-272 287 0
-273 287 0
270 271 272 273 -287 0
288 -287 0
287 -288 0
289 -287 0
287 -289 0
290 -287 0
287 -290 0
291 -287 0
287 -291 0
-232 292 0
-233 292 0
-234 292 0
-235 292 0
-236 292 0
-237 292 0
292 -293 0
292 -294 0
292 -295 0
292 -296 0
297 0
298 -292 0
292 -298 0
-232 299 0
-233 299 0
-234 299 0
-235 299 0
-236 299 0
-237 299 0
-294 299 0
-295 299 0
-296 299 0
300 0
301 -299 0
299 -301 0
-232 302 0
-233 302 0
-234 302 0
-235 302 0
-236 302 0
-237 302 0
-295 302 0
-296 302 0
303 0
304 -302 0
302 -304 0
-232 305 0
-233 305 0
-234 305 0
-235 305 0
-236 305 0
-237 305 0
-296 305 0
306 0
307 -305 0
305 -307 0
308 -309 0
308 -310 0
308 -311 0
308 -312 0
308 -313 0
308 -314 0
308 -315 0
308 -316 0
308 -317 0
308 -318 0
308 -319 0
308 -320 0
321 0
322 -308 0
308 -322 0
-310 323 0
-311 323 0
-312 323 0
-313 323 0
-314 323 0
-315 323 0
-316 323 0
-317 323 0
-318 323 0
-319 323 0
-320 323 0
324 0
325 -323 0
323 -325 0
-311 326 0
-312 326 0
-313 326 0
-314 326 0
-315 326 0
-316 326 0
-317 326 0
-318 326 0
-319 326 0
-320 326 0
327 0
328 -326 0
326 -328 0
-312 329 0
-313 329 0
-314 329 0
-315 329 0
-316 329 0
-317 329 0
-318 329 0
-319 329 0
-320 329 0
330 0
331 -329 0
329 -331 0
-313 332 0
-314 332 0
-315 332 0
-316 332 0
-317 332 0
-318 332 0
-319 332 0
-320 332 0
333 0
334 -332 0
332 -334 0
-314 335 0
-315 335 0
-316 335 0
-317 335 0
-318 335 0
-319 335 0
-320 335 0
336 0
337 -335 0
335 -337 0
-315 338 0
-316 338 0
-317 338 0
-318 338 0
-319 338 0
-320 338 0
339 0
340 -338 0
338 -340 0
341 -338 0
338 -341 0
342 -338 0
338 -342 0
343 -338 0
338 -343 0
344 -338 0
338 -344 0
345 -338 0
338 -345 0
346 -347 0
346 -348 0
346 -349 0
346 -350 0
346 -351 0
346 -352 0
346 -353 0
346 -354 0
355 0
356 -346 0
346 -356 0
-348 357 0
-349 357 0
-350 357 0
-351 357 0
-352 357 0
-353 357 0
-354 357 0
358 0
359 -357 0
357 -359 0
-349 360 0
-350 360 0
-351 360 0
-352 360 0
-353 360 0
-354 360 0
361 0
362 -360 0
360 -362 0
-350 363 0
-351 363 0
-352 363 0
-353 363 0
-354 363 0
350 351 352 353 354 -363 0
364 -363 0
363 -364 0
-351 365 0
-352 365 0
-353 365 0
-354 365 0
351 352 353 354 -365 0
366 -365 0
365 -366 0
367 -365 0
365 -367 0
368 -365 0
365 -368 0
369 -365 0
365 -369 0
370 -371 0
370 -372 0
370 -373 0
370 -374 0
370 -375 0
370 -376 0
370 -377 0
370 -378 0
370 -379 0
380 0
381 -370 0
370 -381 0
-372 382 0
-373 382 0
-374 382 0
-375 382 0
-376 382 0
-377 382 0
-378 382 0
-379 382 0
383 0
384 -382 0
382 -384 0
-373 385 0
-374 385 0
-375 385 0
-376 385 0
-377 385 0
-378 385 0
-379 385 0
386 0
387 -385 0
385 -387 0
-374 388 0
-375 388 0
-376 388 0
-377 388 0
-378 388 0
-379 388 0
389 0
390 -388 0
388 -390 0
391 -388 0
388 -391 0
392 -388 0
388 -392 0
393 -388 0
388 -393 0
394 -388 0
388 -394 0
395 -388 0
388 -395 0
-63 396 0
-64 396 0
-65 396 0
-66 396 0
-67 396 0
-68 396 0
396 -397 0
396 -398 0
396 -399 0
396 -400 0
396 -401 0
402 0
403 -396 0
396 -403 0
-63 404 0
-64 404 0
-65 404 0
-66 404 0
-67 404 0
-68 404 0
-398 404 0
-399 404 0
-400 404 0
-401 404 0
405 0
406 -404 0
404 -406 0
-63 407 0
-64 407 0
-65 407 0
-66 407 0
-67 407 0
-68 407 0
-399 407 0
-400 407 0
-401 407 0
408 0
409 -407 0
407 -409 0
-63 410 0
-64 410 0
-65 410 0
-66 410 0
-67 410 0
-68 410 0
-400 410 0
-401 410 0
411 0
412 -410 0
410 -412 0
-63 413 0
-64 413 0
-65 413 0
-66 413 0
-67 413 0
-68 413 0
-401 413 0
414 0
415 -413 0
413 -415 0
-351 416 0
-352 416 0
-353 416 0
-354 416 0
416 -417 0
416 -418 0
416 -419 0
416 -420 0
416 -421 0
416 -422 0
423 0
424 -416 0
416 -424 0
-351 425 0
-352 425 0
-353 425 0
-354 425 0
-418 425 0
-419 425 0
-420 425 0
-421 425 0
-422 425 0
426 0
427 -425 0
425 -427 0
-351 428 0
-352 428 0
-353 428 0
-354 428 0
-419 428 0
-420 428 0
-421 428 0
-422 428 0
429 0
430 -428 0
428 -430 0
-351 431 0
-352 431 0
-353 431 0
-354 431 0
-420 431 0
-421 431 0
-422 431 0
432 0
433 -431 0
431 -433 0
-351 434 0
-352 434 0
-353 434 0
-354 434 0
-421 434 0
-422 434 0
435 0
436 -434 0
434 -436 0
-351 437 0
-352 437 0
-353 437 0
-354 437 0
-422 437 0
351 352 353 354 422 -437 0
438 -437 0
437 -438 0
-270 439 0
-271 439 0
-272 439 0
-273 439 0
439 -440 0
439 -441 0
439 -442 0
439 -443 0
439 -444 0
439 -445 0
439 -446 0
439 -447 0
439 -448 0
449 0
450 -439 0
439 -450 0
-270 451 0
-271 451 0
-272 451 0
-273 451 0
-441 451 0
-442 451 0
-443 451 0
-444 451 0
-445 451 0
-446 451 0
-447 451 0
-448 451 0
452 0
453 -451 0
451 -453 0
-270 454 0
-271 454 0
-272 454 0
-273 454 0
-442 454 0
-443 454 0
-444 454 0
-445 454 0
-446 454 0
-447 454 0
-448 454 0
455 0
456 -454 0
454 -456 0
-270 457 0
-271 457 0
-272 457 0
-273 457 0
-443 457 0
-444 457 0
-445 457 0
-446 457 0
-447 457 0
-448 457 0
458 0
459 -457 0
457 -459 0
-270 460 0
-271 460 0
-272 460 0
-273 460 0
-444 460 0
-445 460 0
-446 460 0
-447 460 0
-448 460 0
461 0
462 -460 0
460 -462 0
-270 463 0
-271 463 0
-272 463 0
-273 463 0
-445 463 0
-446 463 0
-447 463 0
-448 463 0
464 0
465 -463 0
463 -465 0
-270 466 0
-271 466 0
-272 466 0
-273 466 0
-446 466 0
-447 466 0
-448 466 0
467 0
468 -466 0
466 -468 0
-270 469 0
-271 469 0
-272 469 0
-273 469 0
-447 469 0
-448 469 0
470 0
471 -469 0
469 -471 0
-270 472 0
-271 472 0
-272 472 0
-273 472 0
-448 472 0
270 271 272 273 448 -472 0
473 -472 0
472 -473 0
-351 474 0
-352 474 0
-353 474 0
-354 474 0
-421 474 0
-422 474 0
474 -475 0
474 -476 0
474 -477 0
478 0
479 -474 0
474 -479 0
-351 480 0
-352 480 0
-353 480 0
-354 480 0
-421 480 0
-422 480 0
-476 480 0
-477 480 0
481 0
482 -480 0
480 -482 0
-351 483 0
-352 483 0
-353 483 0
-354 483 0
-421 483 0
-422 483 0
-477 483 0
484 0
485 -483 0
483 -485 0
486 -487 0
486 -488 0
486 -489 0
486 -490 0
486 -491 0
486 -492 0
486 -493 0
486 -494 0
486 -495 0
486 -496 0
486 -497 0
486 -498 0
499 0
500 -486 0
486 -500 0
-488 501 0
-489 501 0
-490 501 0
-491 501 0
-492 501 0
-493 501 0
-494 501 0
-495 501 0
-496 501 0
-497 501 0
-498 501 0
502 0
503 -501 0
501 -503 0
-489 504 0
-490 504 0
-491 504 0
-492 504 0
-493 504 0
-494 504 0
-495 504 0
-496 504 0
-497 504 0
-498 504 0
505 0
506 -504 0
504 -506 0
-490 507 0
-491 507 0
-492 507 0
-493 507 0
-494 507 0
-495 507 0
-496 507 0
-497 507 0
-498 507 0
508 0
509 -507 0
507 -509 0
-491 510 0
-492 510 0
-493 510 0
-494 510 0
-495 510 0
-496 510 0
-497 510 0
-498 510 0
511 0
512 -510 0
510 -512 0
-492 513 0
-493 513 0
-494 513 0
-495 513 0
-496 513 0
-497 513 0
-498 513 0
514 0
515 -513 0
513 -515 0
-493 516 0
-494 516 0
-495 516 0
-496 516 0
-497 516 0
-498 516 0
517 0
518 -516 0
516 -518 0
519 -516 0
516 -519 0
520 -516 0
516 -520 0
521 -516 0
516 -521 0
522 -516 0
516 -522 0
523 -516 0
516 -523 0
-233 524 0
-234 524 0
-235 524 0
-236 524 0
-237 524 0
524 -525 0
524 -526 0
524 -527 0
528 0
529 -524 0
524 -529 0
-233 530 0
-234 530 0
-235 530 0
-236 530 0
-237 530 0
-526 530 0
-527 530 0
531 0
532 -530 0
530 -532 0
-233 533 0
-234 533 0
-235 533 0
-236 533 0
-237 533 0
-527 533 0
534 0
535 -533 0
533 -535 0
-350 536 0
-351 536 0
-352 536 0
-353 536 0
-354 536 0
536 -537 0
538 0
539 -536 0
536 -539 0
14 0
45 0
70 0
97 0
113 0
128 0
-133 0
140 0
162 0
195 0
222 0
239 0
255 0
275 0
290 0
298 0
322 0
356 0
381 0
403 0
424 0
450 0
479 0
500 0
529 0
539 0
